NAME : E076-07u.687601.tour
COMMENT : Length = 687601
COMMENT : Found by LKH [Keld Helsgaun] Tue May  8 13:50:37 2018
TYPE : TOUR
DIMENSION : 82
TOUR_SECTION
1
8
54
12
39
66
67
60
15
36
82
35
53
28
46
30
6
16
58
14
55
20
9
47
78
63
29
62
23
65
43
42
44
2
74
34
7
81
31
49
48
37
38
21
71
61
72
70
22
75
3
69
80
18
4
45
33
51
19
25
50
57
24
64
17
52
79
41
40
10
26
56
32
11
59
73
13
27
77
68
5
76
-1
EOF
